(set-info :smt-lib-version 2.6)
(set-logic LRA)
(set-info :source |
   Monniaux, David; Quantifier Elimination by Lazy Model Enumeration, CAV 2010
|)
(set-info :category "random")
; ./Mjollnir_examples/B3/formula_112.m
(set-info :status unsat)
(assert
 (forall ((|v11:0| Real) )(forall ((|v10:1| Real) )(forall ((|v9:2| Real) )(forall ((|v8:3| Real) )(exists ((|v7:4| Real) )(exists ((|v6:5| Real) )(exists ((|v5:6| Real) )(exists ((|v4:7| Real) )(forall ((|v3:8| Real) )(forall ((|v2:9| Real) )(forall ((|v1:10| Real) )(forall ((|v0:11| Real) )(let ((?x311 0))
(let ((?x584 (+ (+ (* (- 1) |v9:2|) (* 13 |v9:2|)) (* (- 19) |v0:11|))))
(let ((?x19 (- 16)))
(let ((?x77 (- 7)))
(let ((?x87 (* ?x77 |v4:7|)))
(let ((?x578 (+ (+ (* (- 1) |v0:11|) (* (- 6) |v11:0|)) (* 3 |v1:10|))))
(let (($x588 (and (<= (+ ?x578 ?x87) ?x19) (<= (+ ?x584 (* 10 |v7:4|)) ?x311))))
(let ((?x23 (- 20)))
(let ((?x99 17))
(let ((?x176 (* ?x99 |v4:7|)))
(let ((?x570 (+ (+ (* 19 |v7:4|) (* 9 |v2:9|)) (* (- 5) |v6:5|))))
(let ((?x39 20))
(let ((?x563 (+ (+ (* 12 |v10:1|) (* 9 |v3:8|)) (* ?x311 |v0:11|))))
(let (($x573 (and (<= (+ ?x563 (* 18 |v7:4|)) ?x39) (<= (+ ?x570 ?x176) ?x23))))
(let ((?x187 (- 15)))
(let ((?x480 (* ?x311 |v6:5|)))
(let ((?x555 (+ (+ (* (- 9) |v11:0|) (* (- 4) |v1:10|)) (* 7 |v10:1|))))
(let ((?x550 (+ (+ (+ (* (- 8) |v8:3|) |v5:6|) (* 12 |v4:7|)) (* 10 |v10:1|))))
(let ((?x127 (- 14)))
(let ((?x153 8))
(let ((?x244 (* ?x153 |v6:5|)))
(let ((?x542 (+ (+ (* 9 |v2:9|) (* 19 |v4:7|)) (* 6 |v1:10|))))
(let (($x559 (or (<= (+ ?x542 ?x244) ?x127) (and (<= ?x550 ?x187) (<= (+ ?x555 ?x480) ?x187)))))
(let ((?x96 (- 10)))
(let ((?x533 (+ (+ (+ (* 16 |v3:8|) |v2:9|) (* (- 8) |v3:8|)) |v3:8|)))
(let ((?x527 (+ (+ (* 5 |v2:9|) (* ?x187 |v7:4|)) (* 14 |v2:9|))))
(let ((?x352 (- 13)))
(let ((?x353 (* ?x352 |v8:3|)))
(let ((?x521 (+ (+ (+ (* ?x39 |v7:4|) (* 14 |v0:11|)) ?x353) (* ?x187 |v6:5|))))
(let ((?x514 (+ (+ (+ |v0:11| (* (- 12) |v8:3|)) (* (- 2) |v8:3|)) (* 13 |v3:8|))))
(let (($x536 (or (and (<= ?x514 ?x19) (<= ?x521 ?x23)) (or (<= (+ ?x527 (* 4 |v7:4|)) ?x127) (<= ?x533 ?x96)))))
(let ((?x506 (+ (+ (+ (* 13 |v1:10|) |v3:8|) (* 2 |v5:6|)) (* ?x311 |v7:4|))))
(let ((?x498 (+ (+ (* (- 18) |v9:2|) (* 18 |v2:9|)) (* ?x311 |v5:6|))))
(let ((?x26 6))
(let ((?x490 (+ (+ (* (- 17) |v1:10|) (* 2 |v11:0|)) (* ?x352 |v0:11|))))
(let ((?x31 7))
(let ((?x294 (* ?x31 |v3:8|)))
(let ((?x484 (+ (+ (+ (* 15 |v0:11|) ?x480) (* (- 5) |v1:10|)) ?x294)))
(let (($x509 (or (or (<= ?x484 ?x19) (<= (+ ?x490 (* 14 |v8:3|)) ?x26)) (or (<= (+ ?x498 (* ?x187 |v11:0|)) ?x153) (<= ?x506 ?x39)))))
(let ((?x473 (+ (+ (+ (* (- 5) |v2:9|) (* ?x311 |v4:7|)) (* ?x19 |v9:2|)) (* (- 12) |v7:4|))))
(let ((?x170 (- 4)))
(let ((?x157 15))
(let ((?x323 (* ?x157 |v3:8|)))
(let ((?x465 (+ (+ (+ (* ?x26 |v2:9|) (* ?x311 |v2:9|)) (* (- 6) |v0:11|)) ?x323)))
(let ((?x69 16))
(let ((?x455 (+ (+ (* 19 |v2:9|) (* ?x31 |v6:5|)) (* (- 8) |v6:5|))))
(let ((?x197 5))
(let ((?x52 (- 17)))
(let ((?x86 (* ?x52 |v2:9|)))
(let ((?x449 (+ (+ (+ (* ?x99 |v0:11|) (* ?x39 |v10:1|)) (* (- 6) |v8:3|)) ?x86)))
(let (($x476 (or (or (<= ?x449 ?x197) (<= (+ ?x455 (* ?x52 |v5:6|)) ?x69)) (or (<= ?x465 ?x170) (<= ?x473 ?x39)))))
(let ((?x121 11))
(let ((?x438 (+ (+ (* 13 |v7:4|) (* 18 |v1:10|)) (* ?x121 |v3:8|))))
(let ((?x91 (- 2)))
(let ((?x92 (* ?x91 |v6:5|)))
(let ((?x431 (+ (+ (+ (* ?x39 |v9:2|) (* 10 |v0:11|)) ?x92) (* ?x121 |v11:0|))))
(let (($x442 (or (<= ?x431 1) (<= (+ ?x438 (* 10 |v11:0|)) ?x121))))
(let ((?x304 (- 3)))
(let ((?x160 (* ?x121 |v5:6|)))
(let (($x424 (<= (+ (+ (+ (* ?x121 |v6:5|) (* ?x170 |v5:6|)) (* ?x311 |v3:8|)) ?x160) ?x304)))
(let ((?x418 (+ (+ (+ (* ?x352 |v5:6|) (* ?x69 |v3:8|)) (* ?x304 |v5:6|)) (* (- 18) |v5:6|))))
(let ((?x408 (+ (+ (+ (* ?x96 |v2:9|) |v11:0|) (* 3 |v11:0|)) (* 9 |v8:3|))))
(let ((?x56 3))
(let ((?x47 (- 6)))
(let ((?x181 (* ?x47 |v5:6|)))
(let ((?x398 (+ (+ (+ (* 19 |v8:3|) (* ?x99 |v1:10|)) ?x181) (* (- 12) |v0:11|))))
(let ((?x61 12))
(let ((?x62 (* ?x61 |v10:1|)))
(let ((?x390 (+ (+ (* (- 5) |v4:7|) (* ?x157 |v1:10|)) (* (- 18) |v6:5|))))
(let ((?x231 (- 5)))
(let ((?x106 (- 8)))
(let ((?x107 (* ?x106 |v3:8|)))
(let ((?x383 (+ (+ (+ (* ?x352 |v3:8|) (* ?x197 |v2:9|)) (* 4 |v9:2|)) ?x107)))
(let ((?x228 13))
(let ((?x373 (* ?x228 |v9:2|)))
(let ((?x376 (+ (+ (+ (* (- 18) |v4:7|) (* ?x56 |v5:6|)) ?x373) (* ?x77 |v3:8|))))
(let (($x401 (and (or (<= ?x376 ?x127) (<= ?x383 ?x231)) (and (<= (+ ?x390 ?x62) ?x77) (<= ?x398 ?x56)))))
(let (($x478 (or (or $x401 (<= ?x408 (- 11))) (or (or (or (<= ?x418 ?x157) $x424) $x442) $x476))))
(let ((?x364 (+ (+ (+ (* ?x197 |v11:0|) (* 4 |v3:8|)) (* ?x31 |v1:10|)) (* ?x96 |v9:2|))))
(let (($x357 (<= (+ (+ (+ (* ?x121 |v2:9|) (* ?x96 |v7:4|)) ?x353) (* ?x69 |v4:7|)) ?x153)))
(let ((?x163 2))
(let ((?x66 19))
(let ((?x67 (* ?x66 |v1:10|)))
(let ((?x346 (+ (+ (+ (* ?x61 |v0:11|) (* ?x187 |v8:3|)) (* (- 19) |v2:9|)) ?x67)))
(let ((?x339 4))
(let ((?x338 (+ (+ (+ (* ?x96 |v0:11|) (* ?x19 |v5:6|)) (* (- 12) |v1:10|)) (* ?x56 |v0:11|))))
(let (($x329 (<= (+ (+ (+ (* ?x163 |v9:2|) ?x323) (* ?x170 |v0:11|)) (* ?x61 |v6:5|)) ?x52)))
(let ((?x14 (- 9)))
(let ((?x320 (+ (+ (+ (* ?x106 |v7:4|) (* ?x14 |v4:7|)) (* ?x170 |v11:0|)) (* ?x61 |v9:2|))))
(let ((?x308 (+ (+ (* 18 |v3:8|) (* ?x304 |v6:5|)) (* (- 12) |v4:7|))))
(let ((?x44 (- 18)))
(let ((?x299 (+ (+ (+ (* (- 12) |v2:9|) ?x294) (* ?x163 |v8:3|)) (* ?x228 |v4:7|))))
(let (($x331 (and (or (<= ?x299 ?x44) (<= (+ ?x308 (* ?x52 |v11:0|)) ?x311)) (or (<= ?x320 ?x14) $x329))))
(let (($x368 (and $x331 (or (or (<= ?x338 ?x339) (<= ?x346 ?x163)) (or $x357 (<= ?x364 ?x304))))))
(let ((?x289 (+ (+ (+ (* ?x127 |v4:7|) (* ?x153 |v10:1|)) (* ?x187 |v1:10|)) (* ?x26 |v6:5|))))
(let ((?x281 (+ (+ (+ (* ?x14 |v2:9|) (* 18 |v0:11|)) (* ?x47 |v6:5|)) (* (- 19) |v5:6|))))
(let ((?x239 10))
(let ((?x267 (* ?x56 |v5:6|)))
(let ((?x268 (+ (+ (+ (* ?x239 |v6:5|) (* 9 |v7:4|)) (* ?x197 |v5:6|)) ?x267)))
(let (($x276 (or (<= ?x268 ?x121) (<= (+ (+ (+ (* ?x96 |v4:7|) |v8:3|) (* ?x239 |v5:6|)) |v2:9|) ?x239))))
(let ((?x258 (+ (+ (+ (* ?x157 |v8:3|) (* ?x170 |v9:2|)) (* ?x163 |v5:6|)) (* ?x96 |v5:6|))))
(let ((?x250 (+ (+ (+ ?x244 (* 14 |v6:5|)) (* 18 |v10:1|)) (* ?x31 |v5:6|))))
(let ((?x241 (+ (+ (+ (* ?x231 |v11:0|) (* (- 1) |v10:1|)) (* ?x19 |v1:10|)) (* ?x239 |v9:2|))))
(let ((?x227 (+ (+ (+ (* ?x56 |v10:1|) (* ?x26 |v9:2|)) (* ?x52 |v9:2|)) (* ?x23 |v10:1|))))
(let (($x261 (and (or (<= ?x227 ?x228) (<= ?x241 ?x31)) (or (<= ?x250 ?x231) (<= ?x258 ?x106)))))
(let (($x215 (<= (+ (+ (+ (* ?x170 |v5:6|) (* ?x153 |v7:4|)) (* ?x91 |v8:3|)) ?x160) ?x121)))
(let ((?x10 (- 12)))
(let ((?x141 (* ?x10 |v1:10|)))
(let ((?x207 (+ (+ (+ (* 18 |v8:3|) (* ?x47 |v3:8|)) (* ?x96 |v7:4|)) ?x141)))
(let ((?x199 (+ (+ (+ (* 14 |v11:0|) (* ?x26 |v5:6|)) (* ?x14 |v9:2|)) (* ?x197 |v10:1|))))
(let ((?x146 14))
(let (($x190 (<= (+ (+ (+ ?x181 (* ?x77 |v1:10|)) (* ?x52 |v7:4|)) (* ?x187 |v10:1|)) ?x146)))
(let (($x178 (<= (+ (+ (+ (* ?x170 |v6:5|) (* ?x99 |v9:2|)) (* ?x163 |v10:1|)) ?x176) ?x146)))
(let (($x168 (<= (+ (+ (+ (* ?x157 |v2:9|) ?x160) (* ?x163 |v2:9|)) (* ?x19 |v1:10|)) ?x44)))
(let ((?x152 (+ (+ (+ (* ?x146 |v10:1|) (* ?x14 |v2:9|)) (* ?x23 |v6:5|)) (* ?x39 |v0:11|))))
(let (($x143 (<= (+ (+ (+ (* ?x121 |v6:5|) (* ?x121 |v8:3|)) (* ?x10 |v3:8|)) ?x141) ?x91)))
(let (($x218 (or (and (or $x143 (<= ?x152 ?x153)) (and $x168 $x178)) (or (and $x190 (<= ?x199 ?x170)) (and (<= ?x207 ?x10) $x215)))))
(let ((?x53 (* ?x52 |v4:7|)))
(let (($x131 (<= (+ (+ (+ (* ?x52 |v6:5|) (* ?x69 |v0:11|)) (* ?x127 |v6:5|)) ?x53) ?x39)))
(let ((?x120 (+ (+ (+ (* ?x23 |v6:5|) (* ?x14 |v0:11|)) (* (- 19) |v7:4|)) (* ?x31 |v2:9|))))
(let ((?x72 9))
(let (($x109 (<= (+ (+ (+ (* ?x99 |v10:1|) (* ?x61 |v7:4|)) (* ?x61 |v11:0|)) ?x107) ?x72)))
(let (($x110 (or (<= (+ (+ (+ ?x86 ?x87) ?x92) (* 18 |v2:9|)) ?x96) $x109)))
(let ((?x81 (+ (+ (+ (* ?x72 |v1:10|) (* ?x47 |v1:10|)) (* ?x77 |v9:2|)) (* ?x10 |v9:2|))))
(let (($x83 (and (<= (+ (+ (+ ?x53 (* ?x56 |v7:4|)) ?x62) ?x67) ?x69) (<= ?x81 ?x47))))
(let ((?x46 (+ (+ (+ (* ?x31 |v0:11|) (* 18 |v0:11|)) (* ?x39 |v9:2|)) (* ?x44 |v3:8|))))
(let ((?x25 (+ (+ (+ (* ?x10 |v2:9|) (* ?x14 |v11:0|)) (* ?x19 |v4:7|)) (* ?x23 |v4:7|))))
(let (($x134 (or (or (or (<= ?x25 ?x26) (<= ?x46 ?x47)) $x83) (and $x110 (and (<= ?x120 ?x121) $x131)))))
(let (($x370 (and (and $x134 $x218) (or (and $x261 (or $x276 (or (<= ?x281 ?x228) (<= ?x289 ?x47)))) $x368))))
(or $x370 (and $x478 (or (and $x509 $x536) (and $x559 (and $x573 $x588)))))))))))))))))))))))))))))))))))))))))))))))))))))))))))))))))))))))))))))))))))))))))))))))))))))))))))))))))))))))))))))))))))))))
)
)
)
)
)
)
)
)
)
)
)
)
(check-sat)
(exit)

